param n := 50;
param c := 150;
param w := 
1 148
2 147
3 144
4 142
5 141
6 140
7 138
8 136
9 136
10 134
11 128
12 128
13 127
14 120
15 119
16 118
17 114
18 113
19 112
20 108
21 104
22 104
23 103
24 102
25 100
26 99
27 98
28 97
29 96
30 96
31 96
32 94
33 84
34 72
35 70
36 58
37 52
38 44
39 42
40 38
41 34
42 33
43 32
44 31
45 28
46 27
47 16
48 15
49 11
50 4
;